peakDumbCharging = 18500; 
Machine = anon_enum(16); 
machineSpeed = [3700,3700,3700,3700,3700,3700,3700,3700,3700,3700,3700,3700,3700,3700,3700,3700]; 
machineLoad = [3700,3700,3700,3700,3700,3700,3700,3700,3700,3700,3700,3700,3700,3700,3700,3700]; 
Car = anon_enum(18); 
demandCar = [15880,2680,4160,7880,3840,3480,6280,6680,15520,16281,13160,8400,4640,19720,15080,46800,19040,8080]; 
arrivalCar = [74,74,72,70,65,64,59,59,59,58,56,54,51,47,43,41,39,36]; 
departureCar = [80,76,74,74,68,67,64,62,66,64,62,58,55,56,50,60,49,41]; 
